sat

(objectives
 ((bvadd PriceProv12 (bvadd PriceProv11 (bvadd PriceProv10 (bvadd PriceProv9 (bvadd PriceProv8 (bvadd PriceProv7 (bvadd PriceProv6 (bvadd PriceProv5 (bvadd PriceProv4 (bvadd PriceProv3 (bvadd PriceProv1 PriceProv2))))))))))) (_ bv23248 32))
)
;; statistics
(
 :cnf-variables 1031
 :cnf-literals 2520
 :cnf-clauses 1219
 :sat-checks 10
 :sat-restarts 100
 :sat-decisions 691894
 :sat-random-decisions 394
 :sat-propagations 2994589642
 :sat-theory-propagations 0
 :sat-watched-clauses-visited 5514024456
 :sat-binary-watched-clauses-visited 2213484675
 :sat-conflicts 556090
 :sat-theory-conflicts 0
 :theory-necessary-interface-equalities 0
 :theory-extra-interface-equalities 0
 :euf-total-calls 703932
 :euf-complete-calls 6
 :euf-conflicts 0
 :euf-implications 0
 :euf-explanations 0
 :euf-egraph-nodes-created 77686
 :euf-egraph-nodes-deleted 74112
 :euf-num-asserted-equalities 26580134
 :euf-num-asserted-inequalities 10356288
 :euf-num-merges 68665983
 :euf-num-merges-undone 68665983
 :euf-num-atoms-retold 17824
 :la-total-calls 703932
 :la-complete-calls 6
 :la-conflicts 0
 :la-implications 0
 :la-explanations 0
 :la-num-equalities-split 0
 :la-num-tableau-rows 0
 :la-num-tableau-variables 0
 :bv-total-calls 703932
 :bv-complete-calls 6
 :bv-conflicts 0
 :bv-implications 0
 :bv-explanations 0
 :fp-total-calls 703932
 :fp-complete-calls 6
 :fp-conflicts 0
 :fp-implications 0
 :fp-explanations 0
 :arr-total-calls 703932
 :arr-complete-calls 6
 :arr-conflicts 0
 :arr-implications 0
 :arr-explanations 0
 :arr-write-lemmas-added 0
 :arr-row-lemmas-added 0
 :arr-ext-lemmas-added 0
 :arr-const-lemmas-added 0
 :na-total-calls 703932
 :na-complete-calls 6
 :na-conflicts 0
 :na-implications 0
 :na-explanations 0
 :na-num_nonlinear_multiplications 0
 :na-num_axiom_checks 0
 :na-num_zero_lemmas 0
 :na-num_sign_lemmas 0
 :na-num_neutral_lemmas 0
 :na-num_proportionality_lemmas 0
 :na-num_bound_lemmas 0
 :na-num_tangent_lemmas 0
 :na-num_monotonicity_lemmas 0
 :na-num_sat_checks 0
 :na-axiom_check_time 0.000
 :na-sat_check_time 0.000
 :time-seconds 555.500
 :memory-mb 246.362
)
